cpu-bind=MASK - n2lcn0129, task  0  0 [742342]: mask |--------|--------||--------|--------||--------|--------||--------|--------||||--------|BBBB----||--------|--------||--------|--------||--------|--------|  set
started at Fri Mar 17 12:18:50 CET 2023
Timecheck 10015677.847985536
Set parameter TokenServer to value "license3.uni-paderborn.de"
Warning: Gurobi version mismatch between Python 10.0.1 and C library 10.0.0
Timecheck 10015677.852243643
Timecheck 10015677.852477033
Timecheck 10015677.852511484
Timecheck 10015677.852532381


####################################################################################################
Solve scenario sce_6_26_2 with free vessel operation using the arc flow model
Vessels can omit ports, Demands can be rejected
####################################################################################################
Data preprocessing, load /upb/departments/pc2/groups/hpc-prf-winf4/dwetzel/SILSRP/inst_final/sce_6_26_2
and create additional sets and parameters
	|- Read vessel information, number of vessels:	14
	|- Read node information, number of nodes:		794
	|- Read arc information
		|- Number of sailing arcs:			7833
		|- Number of transshipment arcs:	1151
	|- Read container information
		|- Number of demands:		4536
		|- Number of empties (+/-):	378/387
	|- Create additional sets and parameters

Data preprocessing took 	00:00:08.076
####################################################################################################
Create linear model
Set parameter Threads to value 4
	|- Create variables, took	00:00:20.089
	|- Create objective, took	00:00:09.525
	|- Create constraints, took	00:00:38.387
	|- Load heuristic start

Creating model took	00:01:08.059
####################################################################################################
Fix start solution

Set parameter TimeLimit to value 4.7014514295415953e+04
Gurobi Optimizer version 10.0.0 build v10.0.0rc2 (linux64)

CPU model: AMD EPYC 7763 64-Core Processor, instruction set [SSE2|AVX|AVX2]
Thread count: 128 physical cores, 128 logical processors, using up to 4 threads

Optimize a model with 477588 rows, 4064318 columns and 12737671 nonzeros
Model fingerprint: 0x68aaee65
Variable types: 3949341 continuous, 114977 integer (114977 binary)
Coefficient statistics:
  Matrix range     [1e+00, 1e+06]
  Objective range  [1e+00, 1e+00]
  Bounds range     [1e+00, 2e+03]
  RHS range        [1e+00, 2e+08]
Found heuristic solution: objective 2.187320e+08
Presolve removed 307107 rows and 3684763 columns (presolve time = 5s) ...
Presolve removed 419502 rows and 3922062 columns (presolve time = 10s) ...
Presolve removed 426542 rows and 3935093 columns (presolve time = 15s) ...
Presolve removed 426829 rows and 3935395 columns
Presolve time: 16.90s
Presolved: 50759 rows, 128923 columns, 361470 nonzeros
Found heuristic solution: objective 7.819587e+07
Variable types: 125427 continuous, 3496 integer (3482 binary)
Deterministic concurrent LP optimizer: primal and dual simplex
Showing first log only...


Root simplex log...

Iteration    Objective       Primal Inf.    Dual Inf.      Time
       0    1.9464044e+08   1.008375e+03   1.885700e+08     18s
Concurrent spin time: 0.10s

Solved with dual simplex

Root simplex log...

Iteration    Objective       Primal Inf.    Dual Inf.      Time
   14400    4.0432775e+07   0.000000e+00   0.000000e+00     19s

Root relaxation: objective 4.043278e+07, 14400 iterations, 0.93 seconds (0.59 work units)

    Nodes    |    Current Node    |     Objective Bounds      |     Work
 Expl Unexpl |  Obj  Depth IntInf | Incumbent    BestBd   Gap | It/Node Time

     0     0 4.0433e+07    0    3 7.8196e+07 4.0433e+07  48.3%     -   18s
H    0     0                    4.104500e+07 4.0433e+07  1.49%     -   19s
H    0     0                    4.102089e+07 4.0433e+07  1.43%     -   19s
H    0     0                    4.045356e+07 4.0433e+07  0.05%     -   20s
H    0     0                    4.045071e+07 4.0433e+07  0.04%     -   20s

Cutting planes:
  Gomory: 2
  Implied bound: 2
  MIR: 7
  Flow cover: 2

Explored 1 nodes (14400 simplex iterations) in 20.51 seconds (11.48 work units)
Thread count was 4 (of 128 available processors)

Solution count 6: 4.04507e+07 4.04536e+07 4.10209e+07 ... 2.18732e+08

Optimal solution found (tolerance 1.00e-04)
Best objective 4.045071400000e+07, best bound 4.044860200000e+07, gap 0.0052%

Fixing start solution took	00:01:29.946
####################################################################################################
####################################################################################################
Solve optimization model

Set parameter TimeLimit to value 4.6993798393597826e+04
Gurobi Optimizer version 10.0.0 build v10.0.0rc2 (linux64)

CPU model: AMD EPYC 7763 64-Core Processor, instruction set [SSE2|AVX|AVX2]
Thread count: 128 physical cores, 128 logical processors, using up to 4 threads

Optimize a model with 477028 rows, 4064318 columns and 12737111 nonzeros
Model fingerprint: 0x5f8e0253
Variable types: 3949341 continuous, 114977 integer (114977 binary)
Coefficient statistics:
  Matrix range     [1e+00, 1e+06]
  Objective range  [1e+00, 1e+00]
  Bounds range     [1e+00, 2e+03]
  RHS range        [1e+00, 2e+08]

Loaded MIP start from previous solve with objective 4.04507e+07

Presolve removed 15569 rows and 16714 columns (presolve time = 6s) ...
Presolve removed 15646 rows and 17854 columns (presolve time = 10s) ...
Presolve removed 16357 rows and 18536 columns (presolve time = 15s) ...
Presolve removed 16563 rows and 18742 columns (presolve time = 20s) ...
Presolve removed 16564 rows and 18742 columns (presolve time = 25s) ...
Presolve removed 16564 rows and 18742 columns (presolve time = 30s) ...
Presolve removed 16564 rows and 18742 columns (presolve time = 35s) ...
Presolve removed 16564 rows and 18742 columns
Presolve time: 38.19s
Presolved: 460464 rows, 4045576 columns, 11739857 nonzeros
Variable types: 3937129 continuous, 108447 integer (108447 binary)
Deterministic concurrent LP optimizer: primal simplex, dual simplex, and barrier
Showing barrier log only...

Root barrier log...

Elapsed ordering time = 5s
Elapsed ordering time = 10s
Elapsed ordering time = 15s
Elapsed ordering time = 20s
Elapsed ordering time = 25s
Elapsed ordering time = 30s
Elapsed ordering time = 35s
Elapsed ordering time = 40s
Elapsed ordering time = 45s
Elapsed ordering time = 50s
Elapsed ordering time = 55s
Elapsed ordering time = 60s
Elapsed ordering time = 65s
Elapsed ordering time = 70s
Elapsed ordering time = 75s
Elapsed ordering time = 80s
Elapsed ordering time = 85s
Elapsed ordering time = 90s
Elapsed ordering time = 95s
Elapsed ordering time = 100s
Elapsed ordering time = 105s
Elapsed ordering time = 110s
Elapsed ordering time = 115s
Elapsed ordering time = 120s
Elapsed ordering time = 125s
Elapsed ordering time = 130s
Elapsed ordering time = 135s
Elapsed ordering time = 140s
Elapsed ordering time = 145s
Elapsed ordering time = 150s
Elapsed ordering time = 155s
Elapsed ordering time = 160s
Elapsed ordering time = 165s
Elapsed ordering time = 170s
Elapsed ordering time = 175s
Elapsed ordering time = 180s
Elapsed ordering time = 185s
Elapsed ordering time = 190s
Elapsed ordering time = 195s
Elapsed ordering time = 200s
Elapsed ordering time = 205s
Elapsed ordering time = 210s
Elapsed ordering time = 215s
Elapsed ordering time = 220s
Elapsed ordering time = 225s
Elapsed ordering time = 230s
Elapsed ordering time = 235s
Elapsed ordering time = 240s
Elapsed ordering time = 245s
Elapsed ordering time = 250s
Elapsed ordering time = 255s
Elapsed ordering time = 260s
Elapsed ordering time = 265s
Elapsed ordering time = 270s
Elapsed ordering time = 275s
Elapsed ordering time = 280s
Elapsed ordering time = 285s
Elapsed ordering time = 290s
Elapsed ordering time = 295s
Elapsed ordering time = 300s
Elapsed ordering time = 305s
Elapsed ordering time = 310s
Elapsed ordering time = 315s
Elapsed ordering time = 320s
Elapsed ordering time = 325s
Elapsed ordering time = 330s
Elapsed ordering time = 335s
Elapsed ordering time = 340s
Elapsed ordering time = 345s
Elapsed ordering time = 350s
Elapsed ordering time = 355s
Elapsed ordering time = 360s
Elapsed ordering time = 365s
Elapsed ordering time = 370s
Elapsed ordering time = 375s
Elapsed ordering time = 380s
Elapsed ordering time = 385s
Elapsed ordering time = 390s
Elapsed ordering time = 395s
Ordering time: 397.58s

Barrier statistics:
 AA' NZ     : 1.118e+07
 Factor NZ  : 3.637e+08 (roughly 5.0 GB of memory)
 Factor Ops : 8.928e+11 (roughly 15 seconds per iteration)
 Threads    : 2

                  Objective                Residual
Iter       Primal          Dual         Primal    Dual     Compl     Time
   0   6.51080910e+15 -5.24392526e+14  1.90e+09 5.43e+03  1.02e+12   499s
   1   1.93603454e+15 -1.62719317e+14  5.61e+08 2.92e+04  3.10e+11   529s
   2   1.97383723e+14 -3.61623672e+13  5.69e+07 7.56e+02  3.24e+10   559s
   3   2.19863187e+13 -9.79040542e+12  6.32e+06 2.85e-09  3.64e+09   591s
   4   2.58765625e+12 -3.81086396e+12  7.42e+05 2.15e-09  4.36e+08   625s
   5   1.53262598e+11 -2.24251532e+12  4.38e+04 7.10e-09  2.65e+07   660s
   6   2.35031786e+10 -1.74003185e+12  6.63e+03 3.17e-09  4.17e+06   695s
   7   2.88127180e+09 -1.38648059e+12  6.95e+02 5.94e-09  5.71e+05   735s
   8   9.20694120e+08 -8.13546136e+11  1.45e+02 5.97e-09  1.73e+05   777s
   9   4.49579584e+08 -5.43334048e+11  4.53e+01 6.57e-08  8.83e+04   814s
  10   2.23911309e+08 -2.59687399e+11  9.67e+00 9.22e-08  3.68e+04   851s
  11   1.45932394e+08 -6.67747590e+10  9.43e-01 4.00e-07  8.69e+03   890s
  12   1.02718807e+08 -1.58368780e+10  1.57e-01 2.15e-07  2.01e+03   936s
  13   8.73803162e+07 -4.51791323e+09  3.61e-02 5.70e-08  5.72e+02   978s
  14   7.65155677e+07 -2.13514106e+09  1.67e-02 3.09e-08  2.74e+02  1020s
  15   6.68228307e+07 -1.05882448e+09  7.32e-03 2.53e-08  1.39e+02  1053s
  16   5.90013282e+07 -6.48675669e+08  4.79e-03 2.56e-08  8.74e+01  1083s
  17   5.16006379e+07 -3.50355101e+08  3.18e-03 3.24e-08  4.97e+01  1111s
  18   4.53950733e+07 -2.26761756e+08  1.89e-03 3.72e-08  3.36e+01  1139s
  19   3.84529042e+07 -1.19197892e+08  9.22e-04 3.79e-08  1.95e+01  1167s
  20   3.44907357e+07 -7.78348958e+07  5.69e-04 3.11e-08  1.39e+01  1193s
  21   3.20086368e+07 -4.76603685e+07  4.08e-04 3.38e-08  9.84e+00  1219s
  22   3.08453102e+07 -4.36298656e+07  3.42e-04 3.40e-08  9.20e+00  1244s
  23   2.85213157e+07 -3.40646493e+07  2.37e-04 3.30e-08  7.73e+00  1269s
  24   2.65931766e+07 -1.79019586e+07  1.64e-04 3.27e-08  5.49e+00  1295s
  25   2.43049212e+07 -7.90671092e+06  9.43e-05 2.95e-08  3.98e+00  1323s
  26   2.28245302e+07  3.50020185e+06  6.13e-05 2.86e-08  2.39e+00  1352s
  27   2.12472446e+07  8.74346747e+06  3.20e-05 4.16e-08  1.54e+00  1381s
  28   2.02945124e+07  1.18165226e+07  1.80e-05 2.31e-07  1.05e+00  1408s
  29   1.97912353e+07  1.46554002e+07  1.18e-05 1.03e-07  6.34e-01  1436s
  30   1.92688370e+07  1.61119079e+07  6.15e-06 1.20e-07  3.90e-01  1466s
  31   1.90321427e+07  1.67293376e+07  3.85e-06 1.44e-07  2.84e-01  1496s
  32   1.88430607e+07  1.71793192e+07  2.24e-06 1.82e-07  2.05e-01  1526s
  33   1.87239831e+07  1.76562887e+07  1.32e-06 5.21e-08  1.32e-01  1556s
  34   1.86560683e+07  1.81389466e+07  8.02e-07 2.63e-08  6.38e-02  1586s
  35   1.86203084e+07  1.83135281e+07  5.50e-07 1.81e-07  3.79e-02  1613s
  36   1.85812848e+07  1.83874647e+07  2.97e-07 2.05e-07  2.39e-02  1640s
  37   1.85601461e+07  1.84730226e+07  1.56e-07 1.10e-07  1.08e-02  1665s
  38   1.85416719e+07  1.85095727e+07  3.68e-08 7.82e-08  3.96e-03  1690s
  39   1.85380934e+07  1.85192458e+07  1.45e-08 1.85e-07  2.33e-03  1713s
  40   1.85362993e+07  1.85289070e+07  6.42e-09 2.86e-08  9.13e-04  1739s
  41   1.85351932e+07  1.85340529e+07  5.12e-09 1.05e-07  1.41e-04  1765s
  42   1.85347806e+07  1.85347058e+07  1.61e-08 1.55e-07  9.23e-06  1793s
  43   1.85347492e+07  1.85347478e+07  5.61e-08 5.18e-07  1.67e-07  1820s
  44   1.85347484e+07  1.85347484e+07  3.19e-06 1.24e-04  1.79e-09  1849s

Barrier solved model in 44 iterations and 1848.57 seconds (1473.29 work units)
Optimal objective 1.85347484e+07


Root crossover log...

  443643 DPushes remaining with DInf 0.0000000e+00              1849s
  104000 DPushes remaining with DInf 0.0000000e+00              1858s
   32985 DPushes remaining with DInf 0.0000000e+00              1862s
    5423 DPushes remaining with DInf 0.0000000e+00              1865s
    4219 DPushes remaining with DInf 0.0000000e+00              1870s

    9008 PPushes remaining with PInf 0.0000000e+00              1870s
       0 PPushes remaining with PInf 0.0000000e+00              1874s

  Push phase complete: Pinf 0.0000000e+00, Dinf 3.2509082e-07   1874s


Root simplex log...

Iteration    Objective       Primal Inf.    Dual Inf.      Time
  447935    1.8534748e+07   0.000000e+00   0.000000e+00   1874s
Waiting for other threads to finish...        1938s
Waiting for other threads to finish...        2002s
Waiting for other threads to finish...        2065s
Waiting for other threads to finish...        2129s
Waiting for other threads to finish...        2192s
Waiting for other threads to finish...        2256s
Waiting for other threads to finish...        2319s
Waiting for other threads to finish...        2383s
Waiting for other threads to finish...        2447s
Waiting for other threads to finish...        2510s
Waiting for other threads to finish...        2574s
Waiting for other threads to finish...        2666s
Waiting for other threads to finish...        2729s
Waiting for other threads to finish...        2793s
Concurrent spin time: 954.24s (can be avoided by choosing Method=3)

Solved with barrier
  447935    1.8534748e+07   0.000000e+00   0.000000e+00   2830s

Root relaxation: objective 1.853475e+07, 447935 iterations, 2789.50 seconds (1497.53 work units)
Total elapsed time = 2830.28s
Total elapsed time = 2848.16s
Total elapsed time = 2865.36s
Total elapsed time = 2881.05s
Total elapsed time = 2886.68s

    Nodes    |    Current Node    |     Objective Bounds      |     Work
 Expl Unexpl |  Obj  Depth IntInf | Incumbent    BestBd   Gap | It/Node Time

     0     0 1.8535e+07    0 7374 4.0451e+07 1.8535e+07  54.2%     - 2893s
     0     0          -    0      4.0451e+07 1.8535e+07  54.2%     - 46993s

Cutting planes:
  Gomory: 8
  Cover: 5
  Implied bound: 1601
  Clique: 1
  MIR: 159
  Flow cover: 2850
  RLT: 9
  Relax-and-lift: 306

Explored 1 nodes (708031 simplex iterations) in 46994.02 seconds (35101.31 work units)
Thread count was 4 (of 128 available processors)

Solution count 1: 4.04507e+07 

Time limit reached
Best objective 4.045071400000e+07, best bound 1.853474843907e+07, gap 54.1794%

Solving took 	13:03:14.087
####################################################################################################
####################################################################################################
####################################################################################################
Reached timelimit, but could find a feasible solution
####################################################################################################
Description                          Value
----------------------------  ------------
Objective (min)               40,450,714.0
Cost sailing                  20,918,592.0
Cost port visits              10,699,658.0
Cost transshipment (demands)   3,794,962.0
Cost transshipment (empties)     731,876.0
Penalty delayed demands        4,831,323.0
Revenue Empties                5,766,187.0
Penalty rejected demands       5,240,490.0
Rejected demands (%)                   4.0
Omitted ports (%)                    29.91
Gap (%)                              54.18
####################################################################################################
Export solution
####################################################################################################
Overall time 	13:04:55.424

real	784m57.573s
user	878m29.412s
sys	0m48.662s
finished at Sat Mar 18 01:23:48 CET 2023
